p tw 44 49
1 2
2 13
3 4
4 5
4 7
5 6
6 20
7 8
8 9
9 10
10 11
10 16
11 12
12 14
13 24
14 15
15 16
16 17
17 18
18 19
19 20
19 44
20 21
21 22
22 23
22 25
23 25
24 35
24 40
25 26
26 27
27 28
28 29
29 30
29 33
30 31
31 32
32 33
33 34
34 36
35 38
36 37
37 38
38 39
40 41
41 42
42 43
43 44
44 3
